5 6
20 27
24 29
11 17
14 21
17 41
26 44
18 8
13 31
7 50
25 36
21 45
27 4
16 20
11 18
14 38
27 19
20 14
30 3
12 17
30 40
10 25
9 7
25 14
16 45
5 20
8 40
15 33
8 40
6 44
19 45
22 14
5 17
6 29
13 14
27 43
15 25
22 44
30 24
11 10
21 26
29 10
20 36
18 43
13 30
12 36
21 4
25 27
23 40
22 40
